WARNING: for repeatability, setting FPU to use double precision
============================[ Problem Statistics ]=============================
|                                                                             |
|  Number of variables:          4351                                         |
|  Number of clauses:           30550                                         |
|  Parse time:                   0.01 s                                       |
|  Eliminated clauses:           0.01 Mb                                      |
|  Simplification time:          0.01 s                                       |
|                                                                             |
============================[ Search Statistics ]==============================
| Conflicts |          ORIGINAL         |          LEARNT          | Progress |
|           |    Vars  Clauses Literals |    Limit  Clauses Lit/Cl |          |
===============================================================================
|       100 |     621     4466    12064 |     1637      100     10 | 76.879 % |
|       250 |     621     4466    12064 |     1801      250     19 | 76.879 % |
|       475 |     621     4466    12064 |     1981      475     33 | 76.879 % |
|       812 |     621     4466    12064 |     2179      812     39 | 76.879 % |
===============================================================================
restarts              : 7
conflicts             : 846            (23358 /sec)
decisions             : 2658           (0.00 % random) (73387 /sec)
propagations          : 50682          (1399321 /sec)
conflict literals     : 32694          (7.26 % deleted)
Memory used           : 23.00 MB
CPU time              : 0.036219 s

SATISFIABLE
WARNING: for repeatability, setting FPU to use double precision
============================[ Problem Statistics ]=============================
|                                                                             |
|  Number of variables:          4351                                         |
|  Number of clauses:           30550                                         |
|  Parse time:                   0.01 s                                       |
|  Eliminated clauses:           0.01 Mb                                      |
|  Simplification time:          0.01 s                                       |
|                                                                             |
============================[ Search Statistics ]==============================
| Conflicts |          ORIGINAL         |          LEARNT          | Progress |
|           |    Vars  Clauses Literals |    Limit  Clauses Lit/Cl |          |
===============================================================================
|       100 |     621     4466    12064 |     1637      100     10 | 76.879 % |
|       250 |     621     4466    12064 |     1801      250     19 | 76.879 % |
|       475 |     621     4466    12064 |     1981      475     33 | 76.879 % |
|       812 |     621     4466    12064 |     2179      812     39 | 76.879 % |
===============================================================================
restarts              : 7
conflicts             : 846            (29167 /sec)
decisions             : 2658           (0.00 % random) (91639 /sec)
propagations          : 50682          (1747354 /sec)
conflict literals     : 32694          (7.26 % deleted)
Memory used           : 23.00 MB
CPU time              : 0.029005 s

SATISFIABLE
